(set-info :smt-lib-version 2.6)
(set-logic QF_BV)
(set-info :source |
Generated by: SoSy-Lab
Generated on: 2019-03-07
Generator: CPAchecker 1.8-svn 30724 using kInduction
Application: Software Verification for programs written in C
Target solver: MathSAT5
|)
(set-info :license "https://creativecommons.org/licenses/by-sa/4.0/")
(set-info :category "industrial")
(set-info :status sat)

(push 1)
(declare-fun |main::tl@2| () (_ BitVec 32))
(define-fun _8 () (_ BitVec 32) (_ bv0 32))
(define-fun _10 () (_ BitVec 32) |main::tl@2|)
(define-fun _11 () (_ BitVec 32) (_ bv3 32))
(define-fun _13 () (_ BitVec 32) (bvand _11 _10))
(define-fun _14 () Bool (= _13 _8))
(assert _14)
(check-sat)
(push 1)
(declare-fun __ART__61 () Bool)
(define-fun _22 () Bool __ART__61)
(define-fun _23 () Bool (= _14 _22))
(assert _23)
(set-info :status sat)
(check-sat)
(pop 1)
(pop 1)
(exit)
